5 5
3 44 2 58 0 81 1 46 4 42
2 48 1 27 3 20 4 70 0 35
1 76 0 48 2 67 3 68 4 52
2 68 0 4 3 39 1 21 4 66
2 16 4 7 1 83 0 97 3 9
-1
0 1 2 4 5
0 1 2 4 5
0 2 5
0 4 5
0 4 5
-2
62 121 341 360
73 78 191 218
187 372
165 291
272 308

410 9
16 11 2 23 9
10 22 18 6 3
20 15 1 5 12
0 17 7 13 24
21 19 8 4 14
